instances/knapsack/discrete/knapsack_100_5.kp
46117
100
469

27 2.7 84
8 0.8 4
42 4.2 62
7 0.7 70
12 1.2 75
21 2.1 55
49 4.9 19
83 8.3 69
13 1.3 56
6 0.6 48
55 5.5 1
63 6.3 69
28 2.8 37
56 5.6 84
8 0.8 69
4 0.4 66
17 1.7 48
76 7.6 4
85 8.5 44
82 8.2 7
45 4.5 83
19 1.9 5
76 7.6 90
14 1.4 98
40 4.0 87
84 8.4 28
78 7.8 46
59 5.9 9
49 4.9 24
47 4.7 6
73 7.3 55
3 0.3 46
67 6.7 86
49 4.9 73
40 4.0 65
37 3.7 47
16 1.6 51
36 3.6 41
24 2.4 76
10 1.0 29
35 3.5 58
93 9.3 31
22 2.2 51
73 7.3 5
71 7.1 4
62 6.2 21
73 7.3 38
5 0.5 70
15 1.5 94
40 4.0 67
70 7.0 17
84 8.4 72
93 9.3 21
4 0.4 7
16 1.6 2
27 2.7 56
13 1.3 4
90 9.0 22
96 9.6 74
46 4.6 41
40 4.0 54
30 3.0 80
35 3.5 11
66 6.6 63
95 9.5 80
56 5.6 15
12 1.2 23
42 4.2 75
60 6.0 38
61 6.1 19
49 4.9 3
49 4.9 37
86 8.6 99
95 9.5 3
55 5.5 100
44 4.4 24
66 6.6 44
95 9.5 51
64 6.4 58
86 8.6 25
97 9.7 5
93 9.3 68
98 9.8 55
17 1.7 96
73 7.3 79
1 0.1 54
19 1.9 28
52 5.2 9
42 4.2 26
51 5.1 12
96 9.6 56
12 1.2 19
64 6.4 55
15 1.5 50
80 8.0 26
33 3.3 12
41 4.1 75
40 4.0 22
84 8.4 6
100 10.0 94

8195
468

[2.56 1.89 3.62 3.19 1.7 4.16 4.58 0.5 3.61 2.92 2.7 0.25 0.99 4.4 4.34 3.87 3.74 2.02 3.69 0.57 4.35 2.63 3.42 0.6 1.4 1.1 3.36 3.96 0.96 3.73 3.42 0.42 2.65 2.0 3.05 0.25 3.21 0.15 1.13 4.36 3.03 2.67 2.32 0.46 4.36 2.34 2.02 2.47 3.44 2.45 2.68 2.53 3.98 0.99 2.63 1.63 4.16 2.62 1.38 0.46 0.01 1.75 2.25 2.62 0.61 2.58 4.37 0.61 3.04 4.64 4.29 3.52 2.41 0.78 2.84 1.21 4.59 4.19 1.96 2.39 3.72 4.25 3.35 0.64 2.78 0.49 3.95 3.68 0.46 2.82 4.45 0.13 1.0 1.84 0.14 2.66 1.18 0.63 2.97 3.96]

[70 39 33 14 87 8 16 58 8 17 22 6 31 15 39 59 76 71 4 69 48 82 51 97 95 63 33 58 4 42 64 86 50 28 83 32 23 43 75 13 6 52 85 76 74 33 12 64 98 83 29 95 24 99 51 6 76 5 23 53 95 73 34 25 58 75 39 17 11 72 68 76 9 14 18 47 81 26 71 93 92 44 77 84 52 4 54 23 69 78 71 95 7 58 59 68 20 51 39 11]
