instances/knapsack/discrete/knapsack_100_5.lp
\ Model knapsack_100_5
\ LP format - for model browsing. Use MPS format to capture full model detail.
\ Signature: 0x98b4e0718ea0846a
Minimize
  - 90 x[0] - 91 x[1] - 36 x[2] - 36 x[3] - 90 x[4] - 45 x[5] - 22 x[6]
   - 16 x[7] - 47 x[8] - 55 x[9] - 71 x[10] - 11 x[11] - 99 x[12] - 2 x[13]
   - 23 x[14] - 24 x[15] - 2 x[16] - 22 x[17] - 83 x[18] - 90 x[19]
   - 38 x[20] - 39 x[21] - 12 x[22] - 40 x[23] - 5 x[24] - 91 x[25]
   - 64 x[26] - 56 x[27] - 66 x[28] - 53 x[29] - 13 x[30] - 20 x[31]
   - 12 x[32] - 71 x[33] - 40 x[34] - 29 x[35] - x[36] - 39 x[37]
   - 35 x[38] - 20 x[39] - 28 x[40] - 14 x[41] - 2 x[42] - 27 x[43]
   - 31 x[44] - 75 x[45] - 69 x[46] - x[47] - 57 x[48] - 90 x[49] - 7 x[50]
   - 3 x[51] - 19 x[52] - 41 x[53] - 96 x[54] - 82 x[55] - 67 x[56]
   - 20 x[57] - 100 x[58] - 51 x[59] - 76 x[60] - 10 x[61] - 86 x[62]
   - 26 x[63] - 67 x[64] - 61 x[65] - x[66] - 90 x[67] - 5 x[68] - 74 x[69]
   - 89 x[70] - 79 x[71] - 65 x[72] - 82 x[73] - 55 x[74] - 2 x[75]
   - 58 x[76] - 85 x[77] - 80 x[78] - 48 x[79] - 51 x[80] - 26 x[81]
   - 90 x[82] - 18 x[83] - x[84] - 89 x[85] - 90 x[86] - 31 x[87]
   - 48 x[88] - 47 x[89] - 78 x[90] - 18 x[91] - 22 x[92] - x[93]
   - 64 x[94] - 63 x[95] - 85 x[96] - 72 x[97] - 65 x[98] - 9 x[99]
Subject To
 primal_upper: 76 x[0] + 24 x[1] + 34 x[2] + 39 x[3] + 96 x[4] + 86 x[5]
   + 53 x[6] + 80 x[7] + 93 x[8] + 30 x[9] + 24 x[10] + 79 x[11] + 44 x[12]
   + 72 x[13] + 81 x[14] + 65 x[15] + 65 x[16] + 44 x[17] + x[18]
   + 58 x[19] + 93 x[20] + 32 x[21] + 56 x[22] + 23 x[23] + 69 x[24]
   + 80 x[25] + 2 x[26] + 52 x[27] + 50 x[28] + 75 x[29] + 42 x[30]
   + 56 x[31] + 88 x[32] + 9 x[33] + 64 x[34] + 65 x[35] + 48 x[36]
   + 49 x[37] + 88 x[38] + 31 x[39] + 87 x[40] + 98 x[41] + 58 x[42]
   + 90 x[43] + 59 x[44] + 67 x[45] + 82 x[46] + 70 x[47] + 67 x[48]
   + 36 x[49] + 23 x[50] + 88 x[51] + 25 x[52] + 24 x[53] + 97 x[54]
   + 8 x[55] + 69 x[56] + 35 x[57] + 80 x[58] + 70 x[59] + 65 x[60]
   + 23 x[61] + 36 x[62] + 91 x[63] + 48 x[64] + 32 x[65] + 61 x[66]
   + 75 x[67] + 64 x[68] + 14 x[69] + 78 x[70] + 2 x[71] + 34 x[72]
   + 59 x[73] + 96 x[74] + 69 x[75] + 15 x[76] + 47 x[77] + 81 x[78]
   + 83 x[79] + 62 x[80] + 2 x[81] + 75 x[82] + 78 x[83] + 66 x[84]
   + 14 x[85] + 12 x[86] + 80 x[87] + 70 x[88] + 11 x[89] + 57 x[90]
   + 57 x[91] + 13 x[92] + 52 x[93] + 72 x[94] + 61 x[95] + 77 x[96]
   + 85 x[97] + 56 x[98] + 40 x[99] + 7.6 r[0] + 2.4 r[1] + 3.4 r[2]
   + 3.9 r[3] + 9.6 r[4] + 8.6 r[5] + 5.3 r[6] + 8 r[7] + 9.3 r[8] + 3 r[9]
   + 2.4 r[10] + 7.9 r[11] + 4.4 r[12] + 7.2 r[13] + 8.1 r[14] + 6.5 r[15]
   + 6.5 r[16] + 4.4 r[17] + 0.1 r[18] + 5.8 r[19] + 9.3 r[20] + 3.2 r[21]
   + 5.6 r[22] + 2.3 r[23] + 6.9 r[24] + 8 r[25] + 0.2 r[26] + 5.2 r[27]
   + 5 r[28] + 7.5 r[29] + 4.2 r[30] + 5.6 r[31] + 8.8 r[32] + 0.9 r[33]
   + 6.4 r[34] + 6.5 r[35] + 4.8 r[36] + 4.9 r[37] + 8.8 r[38] + 3.1 r[39]
   + 8.7 r[40] + 9.8 r[41] + 5.8 r[42] + 9 r[43] + 5.9 r[44] + 6.7 r[45]
   + 8.2 r[46] + 7 r[47] + 6.7 r[48] + 3.6 r[49] + 2.3 r[50] + 8.8 r[51]
   + 2.5 r[52] + 2.4 r[53] + 9.7 r[54] + 0.8 r[55] + 6.9 r[56] + 3.5 r[57]
   + 8 r[58] + 7 r[59] + 6.5 r[60] + 2.3 r[61] + 3.6 r[62] + 9.1 r[63]
   + 4.8 r[64] + 3.2 r[65] + 6.1 r[66] + 7.5 r[67] + 6.4 r[68] + 1.4 r[69]
   + 7.8 r[70] + 0.2 r[71] + 3.4 r[72] + 5.9 r[73] + 9.6 r[74] + 6.9 r[75]
   + 1.5 r[76] + 4.7 r[77] + 8.1 r[78] + 8.3 r[79] + 6.2 r[80] + 0.2 r[81]
   + 7.5 r[82] + 7.8 r[83] + 6.6 r[84] + 1.4 r[85] + 1.2 r[86] + 8 r[87]
   + 7 r[88] + 1.1 r[89] + 5.7 r[90] + 5.7 r[91] + 1.3 r[92] + 5.2 r[93]
   + 7.2 r[94] + 6.1 r[95] + 7.7 r[96] + 8.5 r[97] + 5.6 r[98] + 4 r[99]
   <= 529
 primal_lower: 1.198921321303318 x[0] + 0.3575946358301667 x[1]
   + 1.14716973475835 x[2] + 3.619031866909355 x[3]
   + 0.5729624065803933 x[4] + 3.227184324895191 x[5]
   + 4.46659386853966 x[6] + 1.477477352707202 x[7]
   + 4.389278308290861 x[8] + 3.466348025620968 x[9]
   + 2.714068298861543 x[10] + 1.509929824871771 x[11]
   + 2.924445510631671 x[12] + 4.39403225427329 x[13]
   + 2.990091659840201 x[14] + 1.893654246776267 x[15]
   + 4.787253664122742 x[16] + 3.153961827221234 x[17]
   + 0.9352182573556639 x[18] + 1.983855246177983 x[19]
   + 2.080797204235028 x[20] + 4.000570810845928 x[21]
   + 2.121160365204571 x[22] + 1.765629864104073 x[23]
   + 1.640295943821554 x[24] + 3.951044851419005 x[25]
   + 4.172942155358953 x[26] + 4.47998410484899 x[27]
   + 3.936042152871806 x[28] + 4.518393090271981 x[29]
   + 3.387066558123775 x[30] + 0.4112326290507424 x[31]
   + 0.3579892849397346 x[32] + 2.051431947587123 x[33]
   + 1.063680284483313 x[34] + 3.558976915873493 x[35]
   + 2.540153367492529 x[36] + 4.823859196336467 x[37]
   + 0.4196956849209603 x[38] + 2.345547688876757 x[39]
   + 4.372088643763622 x[40] + 0.7805389480444218 x[41]
   + 3.2170784020008 x[42] + 2.943655969651402 x[43]
   + 1.296639922658934 x[44] + 0.3447911528181853 x[45]
   + 1.909456932433173 x[46] + 0.363960977029916 x[47]
   + 2.463501184015092 x[48] + 1.161824865802695 x[49]
   + 3.818088642481224 x[50] + 4.860690020524221 x[51]
   + 2.665232372498323 x[52] + 2.348188350283907 x[53]
   + 1.400489241161315 x[54] + 3.192663055189447 x[55]
   + 2.263676448923432 x[56] + 3.271092409721213 x[57]
   + 1.032303114980404 x[58] + 4.249080537655495 x[59]
   + 4.168994960804508 x[60] + 1.959915753143637 x[61]
   + 4.963024453747485 x[62] + 2.39387619812023 x[63]
   + 1.365158969457132 x[64] + 3.717738681696011 x[65]
   + 3.012074850025881 x[66] + 3.47288181863594 x[67]
   + 2.623559899972177 x[68] + 3.512036118068717 x[69]
   + 0.4390426701343059 x[70] + 3.972036939967579 x[71]
   + 3.329318750349981 x[72] + 4.451897292058943 x[73]
   + 2.246096610626108 x[74] + 2.495247680333966 x[75]
   + 2.538849446329623 x[76] + 4.556695735416875 x[77]
   + 1.043333311326935 x[78] + 4.445624615271567 x[79]
   + 3.320685079016504 x[80] + 4.87169102721323 x[81]
   + 2.859261628585517 x[82] + 2.602535170257776 x[83]
   + 2.333226037925866 x[84] + 4.215079587290694 x[85]
   + 2.6384572824197 x[86] + 1.949160049907966 x[87]
   + 4.046053103181898 x[88] + 3.654521046245127 x[89]
   + 3.55456900809764 x[90] + 1.746859445381803 x[91]
   + 0.4578254843744093 x[92] + 2.346434021498956 x[93]
   + 4.053772557424516 x[94] + 3.239403990302036 x[95]
   + 1.466520005794378 x[96] + 0.8808611336890769 x[97]
   + 1.842635663794252 x[98] + 3.71362295454698 x[99] + 25 u[0] + 69 u[1]
   + 47 u[2] + 8 u[3] + 5 u[4] + 55 u[5] + 30 u[6] + 89 u[7] + 34 u[8]
   + 39 u[9] + 21 u[10] + 32 u[11] + 37 u[12] + 69 u[13] + 34 u[14]
   + 22 u[15] + 94 u[16] + 85 u[17] + 6 u[18] + 47 u[19] + 6 u[20]
   + 41 u[21] + 53 u[22] + 36 u[23] + 98 u[24] + 73 u[25] + 99 u[26]
   + 29 u[27] + 59 u[28] + 88 u[29] + 83 u[30] + 57 u[31] + 17 u[32]
   + 86 u[33] + 69 u[34] + 70 u[35] + 57 u[36] + 22 u[37] + 37 u[38]
   + 80 u[39] + 16 u[40] + 7 u[41] + 83 u[42] + 59 u[43] + 60 u[44]
   + 64 u[45] + 39 u[46] + 55 u[47] + 100 u[48] + 25 u[49] + 32 u[50]
   + 85 u[51] + 14 u[52] + 49 u[53] + 22 u[54] + 57 u[55] + 46 u[56]
   + 80 u[57] + 29 u[58] + 67 u[59] + 86 u[60] + 96 u[61] + 77 u[62]
   + 52 u[63] + 61 u[64] + 73 u[65] + 98 u[66] + 40 u[67] + 25 u[68]
   + 27 u[69] + 47 u[70] + 47 u[71] + 83 u[72] + 28 u[73] + 65 u[74]
   + 42 u[75] + 92 u[76] + 96 u[77] + 66 u[78] + 76 u[79] + 31 u[80]
   + 75 u[81] + 92 u[82] + 27 u[83] + 67 u[84] + 91 u[85] + 25 u[86]
   + 5 u[87] + 43 u[88] + 40 u[89] + 50 u[90] + 94 u[91] + 34 u[92]
   + 45 u[93] + u[94] + 14 u[95] + 46 u[96] + 50 u[97] + 77 u[98]
   + 93 u[99] <= 50852
 mccormick1[0]: - u[0] + r[0] <= 0
 mccormick1[1]: - u[1] + r[1] <= 0
 mccormick1[2]: - u[2] + r[2] <= 0
 mccormick1[3]: - u[3] + r[3] <= 0
 mccormick1[4]: - u[4] + r[4] <= 0
 mccormick1[5]: - u[5] + r[5] <= 0
 mccormick1[6]: - u[6] + r[6] <= 0
 mccormick1[7]: - u[7] + r[7] <= 0
 mccormick1[8]: - u[8] + r[8] <= 0
 mccormick1[9]: - u[9] + r[9] <= 0
 mccormick1[10]: - u[10] + r[10] <= 0
 mccormick1[11]: - u[11] + r[11] <= 0
 mccormick1[12]: - u[12] + r[12] <= 0
 mccormick1[13]: - u[13] + r[13] <= 0
 mccormick1[14]: - u[14] + r[14] <= 0
 mccormick1[15]: - u[15] + r[15] <= 0
 mccormick1[16]: - u[16] + r[16] <= 0
 mccormick1[17]: - u[17] + r[17] <= 0
 mccormick1[18]: - u[18] + r[18] <= 0
 mccormick1[19]: - u[19] + r[19] <= 0
 mccormick1[20]: - u[20] + r[20] <= 0
 mccormick1[21]: - u[21] + r[21] <= 0
 mccormick1[22]: - u[22] + r[22] <= 0
 mccormick1[23]: - u[23] + r[23] <= 0
 mccormick1[24]: - u[24] + r[24] <= 0
 mccormick1[25]: - u[25] + r[25] <= 0
 mccormick1[26]: - u[26] + r[26] <= 0
 mccormick1[27]: - u[27] + r[27] <= 0
 mccormick1[28]: - u[28] + r[28] <= 0
 mccormick1[29]: - u[29] + r[29] <= 0
 mccormick1[30]: - u[30] + r[30] <= 0
 mccormick1[31]: - u[31] + r[31] <= 0
 mccormick1[32]: - u[32] + r[32] <= 0
 mccormick1[33]: - u[33] + r[33] <= 0
 mccormick1[34]: - u[34] + r[34] <= 0
 mccormick1[35]: - u[35] + r[35] <= 0
 mccormick1[36]: - u[36] + r[36] <= 0
 mccormick1[37]: - u[37] + r[37] <= 0
 mccormick1[38]: - u[38] + r[38] <= 0
 mccormick1[39]: - u[39] + r[39] <= 0
 mccormick1[40]: - u[40] + r[40] <= 0
 mccormick1[41]: - u[41] + r[41] <= 0
 mccormick1[42]: - u[42] + r[42] <= 0
 mccormick1[43]: - u[43] + r[43] <= 0
 mccormick1[44]: - u[44] + r[44] <= 0
 mccormick1[45]: - u[45] + r[45] <= 0
 mccormick1[46]: - u[46] + r[46] <= 0
 mccormick1[47]: - u[47] + r[47] <= 0
 mccormick1[48]: - u[48] + r[48] <= 0
 mccormick1[49]: - u[49] + r[49] <= 0
 mccormick1[50]: - u[50] + r[50] <= 0
 mccormick1[51]: - u[51] + r[51] <= 0
 mccormick1[52]: - u[52] + r[52] <= 0
 mccormick1[53]: - u[53] + r[53] <= 0
 mccormick1[54]: - u[54] + r[54] <= 0
 mccormick1[55]: - u[55] + r[55] <= 0
 mccormick1[56]: - u[56] + r[56] <= 0
 mccormick1[57]: - u[57] + r[57] <= 0
 mccormick1[58]: - u[58] + r[58] <= 0
 mccormick1[59]: - u[59] + r[59] <= 0
 mccormick1[60]: - u[60] + r[60] <= 0
 mccormick1[61]: - u[61] + r[61] <= 0
 mccormick1[62]: - u[62] + r[62] <= 0
 mccormick1[63]: - u[63] + r[63] <= 0
 mccormick1[64]: - u[64] + r[64] <= 0
 mccormick1[65]: - u[65] + r[65] <= 0
 mccormick1[66]: - u[66] + r[66] <= 0
 mccormick1[67]: - u[67] + r[67] <= 0
 mccormick1[68]: - u[68] + r[68] <= 0
 mccormick1[69]: - u[69] + r[69] <= 0
 mccormick1[70]: - u[70] + r[70] <= 0
 mccormick1[71]: - u[71] + r[71] <= 0
 mccormick1[72]: - u[72] + r[72] <= 0
 mccormick1[73]: - u[73] + r[73] <= 0
 mccormick1[74]: - u[74] + r[74] <= 0
 mccormick1[75]: - u[75] + r[75] <= 0
 mccormick1[76]: - u[76] + r[76] <= 0
 mccormick1[77]: - u[77] + r[77] <= 0
 mccormick1[78]: - u[78] + r[78] <= 0
 mccormick1[79]: - u[79] + r[79] <= 0
 mccormick1[80]: - u[80] + r[80] <= 0
 mccormick1[81]: - u[81] + r[81] <= 0
 mccormick1[82]: - u[82] + r[82] <= 0
 mccormick1[83]: - u[83] + r[83] <= 0
 mccormick1[84]: - u[84] + r[84] <= 0
 mccormick1[85]: - u[85] + r[85] <= 0
 mccormick1[86]: - u[86] + r[86] <= 0
 mccormick1[87]: - u[87] + r[87] <= 0
 mccormick1[88]: - u[88] + r[88] <= 0
 mccormick1[89]: - u[89] + r[89] <= 0
 mccormick1[90]: - u[90] + r[90] <= 0
 mccormick1[91]: - u[91] + r[91] <= 0
 mccormick1[92]: - u[92] + r[92] <= 0
 mccormick1[93]: - u[93] + r[93] <= 0
 mccormick1[94]: - u[94] + r[94] <= 0
 mccormick1[95]: - u[95] + r[95] <= 0
 mccormick1[96]: - u[96] + r[96] <= 0
 mccormick1[97]: - u[97] + r[97] <= 0
 mccormick1[98]: - u[98] + r[98] <= 0
 mccormick1[99]: - u[99] + r[99] <= 0
 mccormick2[0]: - x[0] + r[0] <= 0
 mccormick2[1]: - x[1] + r[1] <= 0
 mccormick2[2]: - x[2] + r[2] <= 0
 mccormick2[3]: - x[3] + r[3] <= 0
 mccormick2[4]: - x[4] + r[4] <= 0
 mccormick2[5]: - x[5] + r[5] <= 0
 mccormick2[6]: - x[6] + r[6] <= 0
 mccormick2[7]: - x[7] + r[7] <= 0
 mccormick2[8]: - x[8] + r[8] <= 0
 mccormick2[9]: - x[9] + r[9] <= 0
 mccormick2[10]: - x[10] + r[10] <= 0
 mccormick2[11]: - x[11] + r[11] <= 0
 mccormick2[12]: - x[12] + r[12] <= 0
 mccormick2[13]: - x[13] + r[13] <= 0
 mccormick2[14]: - x[14] + r[14] <= 0
 mccormick2[15]: - x[15] + r[15] <= 0
 mccormick2[16]: - x[16] + r[16] <= 0
 mccormick2[17]: - x[17] + r[17] <= 0
 mccormick2[18]: - x[18] + r[18] <= 0
 mccormick2[19]: - x[19] + r[19] <= 0
 mccormick2[20]: - x[20] + r[20] <= 0
 mccormick2[21]: - x[21] + r[21] <= 0
 mccormick2[22]: - x[22] + r[22] <= 0
 mccormick2[23]: - x[23] + r[23] <= 0
 mccormick2[24]: - x[24] + r[24] <= 0
 mccormick2[25]: - x[25] + r[25] <= 0
 mccormick2[26]: - x[26] + r[26] <= 0
 mccormick2[27]: - x[27] + r[27] <= 0
 mccormick2[28]: - x[28] + r[28] <= 0
 mccormick2[29]: - x[29] + r[29] <= 0
 mccormick2[30]: - x[30] + r[30] <= 0
 mccormick2[31]: - x[31] + r[31] <= 0
 mccormick2[32]: - x[32] + r[32] <= 0
 mccormick2[33]: - x[33] + r[33] <= 0
 mccormick2[34]: - x[34] + r[34] <= 0
 mccormick2[35]: - x[35] + r[35] <= 0
 mccormick2[36]: - x[36] + r[36] <= 0
 mccormick2[37]: - x[37] + r[37] <= 0
 mccormick2[38]: - x[38] + r[38] <= 0
 mccormick2[39]: - x[39] + r[39] <= 0
 mccormick2[40]: - x[40] + r[40] <= 0
 mccormick2[41]: - x[41] + r[41] <= 0
 mccormick2[42]: - x[42] + r[42] <= 0
 mccormick2[43]: - x[43] + r[43] <= 0
 mccormick2[44]: - x[44] + r[44] <= 0
 mccormick2[45]: - x[45] + r[45] <= 0
 mccormick2[46]: - x[46] + r[46] <= 0
 mccormick2[47]: - x[47] + r[47] <= 0
 mccormick2[48]: - x[48] + r[48] <= 0
 mccormick2[49]: - x[49] + r[49] <= 0
 mccormick2[50]: - x[50] + r[50] <= 0
 mccormick2[51]: - x[51] + r[51] <= 0
 mccormick2[52]: - x[52] + r[52] <= 0
 mccormick2[53]: - x[53] + r[53] <= 0
 mccormick2[54]: - x[54] + r[54] <= 0
 mccormick2[55]: - x[55] + r[55] <= 0
 mccormick2[56]: - x[56] + r[56] <= 0
 mccormick2[57]: - x[57] + r[57] <= 0
 mccormick2[58]: - x[58] + r[58] <= 0
 mccormick2[59]: - x[59] + r[59] <= 0
 mccormick2[60]: - x[60] + r[60] <= 0
 mccormick2[61]: - x[61] + r[61] <= 0
 mccormick2[62]: - x[62] + r[62] <= 0
 mccormick2[63]: - x[63] + r[63] <= 0
 mccormick2[64]: - x[64] + r[64] <= 0
 mccormick2[65]: - x[65] + r[65] <= 0
 mccormick2[66]: - x[66] + r[66] <= 0
 mccormick2[67]: - x[67] + r[67] <= 0
 mccormick2[68]: - x[68] + r[68] <= 0
 mccormick2[69]: - x[69] + r[69] <= 0
 mccormick2[70]: - x[70] + r[70] <= 0
 mccormick2[71]: - x[71] + r[71] <= 0
 mccormick2[72]: - x[72] + r[72] <= 0
 mccormick2[73]: - x[73] + r[73] <= 0
 mccormick2[74]: - x[74] + r[74] <= 0
 mccormick2[75]: - x[75] + r[75] <= 0
 mccormick2[76]: - x[76] + r[76] <= 0
 mccormick2[77]: - x[77] + r[77] <= 0
 mccormick2[78]: - x[78] + r[78] <= 0
 mccormick2[79]: - x[79] + r[79] <= 0
 mccormick2[80]: - x[80] + r[80] <= 0
 mccormick2[81]: - x[81] + r[81] <= 0
 mccormick2[82]: - x[82] + r[82] <= 0
 mccormick2[83]: - x[83] + r[83] <= 0
 mccormick2[84]: - x[84] + r[84] <= 0
 mccormick2[85]: - x[85] + r[85] <= 0
 mccormick2[86]: - x[86] + r[86] <= 0
 mccormick2[87]: - x[87] + r[87] <= 0
 mccormick2[88]: - x[88] + r[88] <= 0
 mccormick2[89]: - x[89] + r[89] <= 0
 mccormick2[90]: - x[90] + r[90] <= 0
 mccormick2[91]: - x[91] + r[91] <= 0
 mccormick2[92]: - x[92] + r[92] <= 0
 mccormick2[93]: - x[93] + r[93] <= 0
 mccormick2[94]: - x[94] + r[94] <= 0
 mccormick2[95]: - x[95] + r[95] <= 0
 mccormick2[96]: - x[96] + r[96] <= 0
 mccormick2[97]: - x[97] + r[97] <= 0
 mccormick2[98]: - x[98] + r[98] <= 0
 mccormick2[99]: - x[99] + r[99] <= 0
 mccormick3[0]: x[0] + u[0] - r[0] <= 1
 mccormick3[1]: x[1] + u[1] - r[1] <= 1
 mccormick3[2]: x[2] + u[2] - r[2] <= 1
 mccormick3[3]: x[3] + u[3] - r[3] <= 1
 mccormick3[4]: x[4] + u[4] - r[4] <= 1
 mccormick3[5]: x[5] + u[5] - r[5] <= 1
 mccormick3[6]: x[6] + u[6] - r[6] <= 1
 mccormick3[7]: x[7] + u[7] - r[7] <= 1
 mccormick3[8]: x[8] + u[8] - r[8] <= 1
 mccormick3[9]: x[9] + u[9] - r[9] <= 1
 mccormick3[10]: x[10] + u[10] - r[10] <= 1
 mccormick3[11]: x[11] + u[11] - r[11] <= 1
 mccormick3[12]: x[12] + u[12] - r[12] <= 1
 mccormick3[13]: x[13] + u[13] - r[13] <= 1
 mccormick3[14]: x[14] + u[14] - r[14] <= 1
 mccormick3[15]: x[15] + u[15] - r[15] <= 1
 mccormick3[16]: x[16] + u[16] - r[16] <= 1
 mccormick3[17]: x[17] + u[17] - r[17] <= 1
 mccormick3[18]: x[18] + u[18] - r[18] <= 1
 mccormick3[19]: x[19] + u[19] - r[19] <= 1
 mccormick3[20]: x[20] + u[20] - r[20] <= 1
 mccormick3[21]: x[21] + u[21] - r[21] <= 1
 mccormick3[22]: x[22] + u[22] - r[22] <= 1
 mccormick3[23]: x[23] + u[23] - r[23] <= 1
 mccormick3[24]: x[24] + u[24] - r[24] <= 1
 mccormick3[25]: x[25] + u[25] - r[25] <= 1
 mccormick3[26]: x[26] + u[26] - r[26] <= 1
 mccormick3[27]: x[27] + u[27] - r[27] <= 1
 mccormick3[28]: x[28] + u[28] - r[28] <= 1
 mccormick3[29]: x[29] + u[29] - r[29] <= 1
 mccormick3[30]: x[30] + u[30] - r[30] <= 1
 mccormick3[31]: x[31] + u[31] - r[31] <= 1
 mccormick3[32]: x[32] + u[32] - r[32] <= 1
 mccormick3[33]: x[33] + u[33] - r[33] <= 1
 mccormick3[34]: x[34] + u[34] - r[34] <= 1
 mccormick3[35]: x[35] + u[35] - r[35] <= 1
 mccormick3[36]: x[36] + u[36] - r[36] <= 1
 mccormick3[37]: x[37] + u[37] - r[37] <= 1
 mccormick3[38]: x[38] + u[38] - r[38] <= 1
 mccormick3[39]: x[39] + u[39] - r[39] <= 1
 mccormick3[40]: x[40] + u[40] - r[40] <= 1
 mccormick3[41]: x[41] + u[41] - r[41] <= 1
 mccormick3[42]: x[42] + u[42] - r[42] <= 1
 mccormick3[43]: x[43] + u[43] - r[43] <= 1
 mccormick3[44]: x[44] + u[44] - r[44] <= 1
 mccormick3[45]: x[45] + u[45] - r[45] <= 1
 mccormick3[46]: x[46] + u[46] - r[46] <= 1
 mccormick3[47]: x[47] + u[47] - r[47] <= 1
 mccormick3[48]: x[48] + u[48] - r[48] <= 1
 mccormick3[49]: x[49] + u[49] - r[49] <= 1
 mccormick3[50]: x[50] + u[50] - r[50] <= 1
 mccormick3[51]: x[51] + u[51] - r[51] <= 1
 mccormick3[52]: x[52] + u[52] - r[52] <= 1
 mccormick3[53]: x[53] + u[53] - r[53] <= 1
 mccormick3[54]: x[54] + u[54] - r[54] <= 1
 mccormick3[55]: x[55] + u[55] - r[55] <= 1
 mccormick3[56]: x[56] + u[56] - r[56] <= 1
 mccormick3[57]: x[57] + u[57] - r[57] <= 1
 mccormick3[58]: x[58] + u[58] - r[58] <= 1
 mccormick3[59]: x[59] + u[59] - r[59] <= 1
 mccormick3[60]: x[60] + u[60] - r[60] <= 1
 mccormick3[61]: x[61] + u[61] - r[61] <= 1
 mccormick3[62]: x[62] + u[62] - r[62] <= 1
 mccormick3[63]: x[63] + u[63] - r[63] <= 1
 mccormick3[64]: x[64] + u[64] - r[64] <= 1
 mccormick3[65]: x[65] + u[65] - r[65] <= 1
 mccormick3[66]: x[66] + u[66] - r[66] <= 1
 mccormick3[67]: x[67] + u[67] - r[67] <= 1
 mccormick3[68]: x[68] + u[68] - r[68] <= 1
 mccormick3[69]: x[69] + u[69] - r[69] <= 1
 mccormick3[70]: x[70] + u[70] - r[70] <= 1
 mccormick3[71]: x[71] + u[71] - r[71] <= 1
 mccormick3[72]: x[72] + u[72] - r[72] <= 1
 mccormick3[73]: x[73] + u[73] - r[73] <= 1
 mccormick3[74]: x[74] + u[74] - r[74] <= 1
 mccormick3[75]: x[75] + u[75] - r[75] <= 1
 mccormick3[76]: x[76] + u[76] - r[76] <= 1
 mccormick3[77]: x[77] + u[77] - r[77] <= 1
 mccormick3[78]: x[78] + u[78] - r[78] <= 1
 mccormick3[79]: x[79] + u[79] - r[79] <= 1
 mccormick3[80]: x[80] + u[80] - r[80] <= 1
 mccormick3[81]: x[81] + u[81] - r[81] <= 1
 mccormick3[82]: x[82] + u[82] - r[82] <= 1
 mccormick3[83]: x[83] + u[83] - r[83] <= 1
 mccormick3[84]: x[84] + u[84] - r[84] <= 1
 mccormick3[85]: x[85] + u[85] - r[85] <= 1
 mccormick3[86]: x[86] + u[86] - r[86] <= 1
 mccormick3[87]: x[87] + u[87] - r[87] <= 1
 mccormick3[88]: x[88] + u[88] - r[88] <= 1
 mccormick3[89]: x[89] + u[89] - r[89] <= 1
 mccormick3[90]: x[90] + u[90] - r[90] <= 1
 mccormick3[91]: x[91] + u[91] - r[91] <= 1
 mccormick3[92]: x[92] + u[92] - r[92] <= 1
 mccormick3[93]: x[93] + u[93] - r[93] <= 1
 mccormick3[94]: x[94] + u[94] - r[94] <= 1
 mccormick3[95]: x[95] + u[95] - r[95] <= 1
 mccormick3[96]: x[96] + u[96] - r[96] <= 1
 mccormick3[97]: x[97] + u[97] - r[97] <= 1
 mccormick3[98]: x[98] + u[98] - r[98] <= 1
 mccormick3[99]: x[99] + u[99] - r[99] <= 1
Bounds
Binaries
 x[0] x[1] x[2] x[3] x[4] x[5] x[6] x[7] x[8] x[9] x[10] x[11] x[12] x[13]
 x[14] x[15] x[16] x[17] x[18] x[19] x[20] x[21] x[22] x[23] x[24] x[25]
 x[26] x[27] x[28] x[29] x[30] x[31] x[32] x[33] x[34] x[35] x[36] x[37]
 x[38] x[39] x[40] x[41] x[42] x[43] x[44] x[45] x[46] x[47] x[48] x[49]
 x[50] x[51] x[52] x[53] x[54] x[55] x[56] x[57] x[58] x[59] x[60] x[61]
 x[62] x[63] x[64] x[65] x[66] x[67] x[68] x[69] x[70] x[71] x[72] x[73]
 x[74] x[75] x[76] x[77] x[78] x[79] x[80] x[81] x[82] x[83] x[84] x[85]
 x[86] x[87] x[88] x[89] x[90] x[91] x[92] x[93] x[94] x[95] x[96] x[97]
 x[98] x[99] u[0] u[1] u[2] u[3] u[4] u[5] u[6] u[7] u[8] u[9] u[10] u[11]
 u[12] u[13] u[14] u[15] u[16] u[17] u[18] u[19] u[20] u[21] u[22] u[23]
 u[24] u[25] u[26] u[27] u[28] u[29] u[30] u[31] u[32] u[33] u[34] u[35]
 u[36] u[37] u[38] u[39] u[40] u[41] u[42] u[43] u[44] u[45] u[46] u[47]
 u[48] u[49] u[50] u[51] u[52] u[53] u[54] u[55] u[56] u[57] u[58] u[59]
 u[60] u[61] u[62] u[63] u[64] u[65] u[66] u[67] u[68] u[69] u[70] u[71]
 u[72] u[73] u[74] u[75] u[76] u[77] u[78] u[79] u[80] u[81] u[82] u[83]
 u[84] u[85] u[86] u[87] u[88] u[89] u[90] u[91] u[92] u[93] u[94] u[95]
 u[96] u[97] u[98] u[99] r[0] r[1] r[2] r[3] r[4] r[5] r[6] r[7] r[8] r[9]
 r[10] r[11] r[12] r[13] r[14] r[15] r[16] r[17] r[18] r[19] r[20] r[21]
 r[22] r[23] r[24] r[25] r[26] r[27] r[28] r[29] r[30] r[31] r[32] r[33]
 r[34] r[35] r[36] r[37] r[38] r[39] r[40] r[41] r[42] r[43] r[44] r[45]
 r[46] r[47] r[48] r[49] r[50] r[51] r[52] r[53] r[54] r[55] r[56] r[57]
 r[58] r[59] r[60] r[61] r[62] r[63] r[64] r[65] r[66] r[67] r[68] r[69]
 r[70] r[71] r[72] r[73] r[74] r[75] r[76] r[77] r[78] r[79] r[80] r[81]
 r[82] r[83] r[84] r[85] r[86] r[87] r[88] r[89] r[90] r[91] r[92] r[93]
 r[94] r[95] r[96] r[97] r[98] r[99]
End
